1 -1 2 0
1 -1 -3 0
1 1 4 0
1 1 5 0
1 -6 -7 0
1 -6 4 0
1 -8 -7 0
1 8 9 0
1 8 -10 0
1 4 11 0
1 4 -12 0
1 4 -13 0
1 -4 -14 0
1 4 -6 0
1 4 1 0
1 5 -11 0
1 5 -15 0
1 5 -8 0
1 -5 2 0
1 5 4 0
1 -5 16 0
1 5 -1 0
1 -3 11 0
1 -3 -8 0
1 -3 -16 0
1 -17 -11 0
1 -17 18 0
1 -17 19 0
1 -17 -8 0
1 17 -20 0
1 17 -21 0
1 17 22 0
1 14 -7 0
1 14 23 0
1 14 -15 0
1 14 4 0
1 -14 -10 0
1 -14 21 0
1 14 5 0
1 15 -7 0
1 15 -23 0
1 15 -19 0
1 -15 -4 0
1 15 -9 0
1 -15 10 0
1 -15 14 0
1 13 -7 0
1 -13 -23 0
1 -13 -12 0
1 13 -24 0
1 -13 -4 0
1 -13 25 0
1 13 5 0
1 -12 7 0
1 -12 4 0
1 -12 10 0
1 12 -26 0
1 12 5 0
1 -10 27 0
1 -10 -23 0
1 10 -12 0
1 10 -28 0
1 10 -13 0
1 -10 -14 0
1 23 29 0
1 23 -12 0
1 23 -8 0
1 23 30 0
1 -23 28 0
1 -23 31 0
1 -23 -6 0
1 -9 7 0
1 -9 -15 0
1 -9 13 0
1 9 -6 0
1 -7 -11 0
1 -7 -12 0
1 7 -8 0
1 -7 -32 0
1 -7 14 0
1 -7 -33 0
1 31 29 0
1 -31 -16 0
1 -31 25 0
1 29 -11 0
1 -29 34 0
1 -29 -24 0
1 -29 -31 0
1 -29 10 0
1 -29 -26 0
1 -29 25 0
1 28 27 0
1 28 24 0
1 -28 -10 0
1 -28 26 0
1 -27 -24 0
1 27 26 0
1 -27 25 0
1 -25 -31 0
1 25 -13 0
1 -24 29 0
1 -24 -12 0
1 24 13 0
1 -24 25 0
1 26 27 0
1 26 -30 0
1 26 -28 0
1 -26 31 0
1 -26 13 0
1 26 35 0
1 26 33 0
1 -34 27 0
1 -34 -12 0
1 -34 36 0
1 -34 -31 0
1 34 -26 0
1 -34 35 0
1 21 3 0
1 -21 17 0
1 -19 37 0
1 19 38 0
1 -19 39 0
1 19 21 0
1 -19 -17 0
1 20 18 0
1 -20 -40 0
1 20 -41 0
1 20 -3 0
1 20 13 0
1 -20 39 0
1 18 -12 0
1 18 42 0
1 18 -41 0
1 -18 3 0
1 -18 -38 0
1 18 20 0
1 18 -43 0
1 37 39 0
1 -37 44 0
1 -37 18 0
1 -37 -19 0
1 -39 -44 0
1 -39 11 0
1 39 37 0
1 39 -32 0
1 -39 20 0
1 -42 -18 0
1 -42 19 0
1 -42 -38 0
1 38 20 0
1 16 -37 0
1 -16 41 0
1 16 -4 0
1 16 -39 0
1 16 -5 0
1 11 -40 0
1 -11 -41 0
1 -11 4 0
1 -11 -9 0
1 11 16 0
1 11 39 0
1 11 -43 0
1 11 -5 0
1 32 7 0
1 32 44 0
1 -32 45 0
1 -32 46 0
1 32 28 0
1 -32 39 0
1 -32 43 0
1 32 22 0
1 44 47 0
1 -44 -27 0
1 -44 -7 0
1 -44 -45 0
1 -44 -9 0
1 -44 -32 0
1 -44 39 0
1 44 -43 0
1 41 44 0
1 -41 -18 0
1 -41 -36 0
1 41 32 0
1 41 20 0
1 41 43 0
1 43 -44 0
1 43 11 0
1 43 -18 0
1 -43 36 0
1 -43 -32 0
1 43 16 0
1 -43 20 0
1 -43 -35 0
1 -40 44 0
1 -40 18 0
1 40 16 0
1 -40 48 0
1 48 11 0
1 -48 32 0
1 48 16 0
1 -30 47 0
1 30 -7 0
1 -30 -23 0
1 30 -45 0
1 -30 10 0
1 -30 26 0
1 30 -43 0
1 -33 47 0
1 -33 23 0
1 33 34 0
1 33 -41 0
1 -33 45 0
1 33 -30 0
1 33 46 0
1 -33 -9 0
1 -33 10 0
1 33 26 0
1 33 -43 0
1 -36 -47 0
1 -36 -41 0
1 36 45 0
1 -36 -22 0
1 35 47 0
1 -35 34 0
1 -35 -41 0
1 -35 46 0
1 -35 -43 0
1 46 32 0
1 46 -35 0
1 47 44 0
1 -45 -36 0
1 -45 -30 0
1 45 35 0
1 -45 -22 0
1 22 36 0
1 22 45 0
1 -22 -17 0
